333 345 
363 375 
377 389 
393 405 
409 421 
423 435 
439 451 
453 465 
469 471 
483 495 
499 511 
513 525 
529 541 
543 555 
559 571 
573 585 
589 601 
603 615 
633 645 
663 675 
693 705 
723 735 
753 765 
783 795 
813 825 
843 855 
873 885 
903 915 
933 945 
949 961 
963 975 
979 991 
993 1005 
1009 1021 
1023 1035 
1039 1051 
1053 1065 
1069 1081 
1083 1095 
1099 1111 
1113 1125 
1129 1141 
1143 1155 
1157 1169 
1173 1185 
1187 1199 
1203 1215 
1233 1245 
1263 1275 
1293 1305 
1323 1335 
1353 1365 
1383 1395 
1413 1425 
1443 1455 
1473 1485 